83869.35 0
0 2102 2101 2100 2099 2098 2097 2096 2095 36 35 81 85 91 90 89 92 136 137 138 191 204 203 202 190 259 205 206 207 208 209 210 211 212 213 260 261 262 263 184 185 186 187 194 195 196 197 198 199 200 201 188 189 139 140 141 142 143 144 145 146 147 148 149 150 151 152 153 154 155 192 214 215 216 217 218 219 220 221 258 222 223 224 225 226 227 228 229 230 162 163 164 165 166 167 168 231 232 233 234 235 236 237 238 239 169 170 171 172 173 174 175 240 241 242 243 244 245 246 247 248 249 250 251 252 253 254 255 256 257 264 986 987 988 989 990 991 992 993 994 995 996 997 998 999 1000 1001 1002 1048 1049 1050 1051 1047 1046 1045 1044 1043 1042 1039 1038 1034 1035 1040 1041 1037 1036 1033 1032 1031 1028 1027 1024 1023 1022 1025 1026 1029 1030 1003 1004 1005 1006 1007 1008 1009 1010 1011 1021 1014 1013 1012 1017 1018 1019 1020 1016 1015 296 297 298 295 294 293 292 291 290 289 288 287 286 285 284 283 282 281 280 279 278 277 276 275 274 273 272 271 270 269 268 267 266 325 324 323 322 321 320 319 318 317 316 315 314 313 312 311 310 309 308 307 306 305 304 303 302 301 300 299 346 347 348 349 350 351 352 353 354 355 356 357 358 359 360 361 362 363 364 365 366 367 368 345 344 343 342 341 340 339 338 337 336 335 334 333 332 331 330 329 328 327 326 385 384 383 382 381 380 379 378 377 376 375 374 373 372 371 370 369 395 396 397 398 399 400 401 402 403 404 405 406 407 408 409 410 411 412 413 414 415 416 417 418 419 420 421 422 423 424 425 426 427 428 429 430 431 432 433 434 435 436 437 438 439 394 393 392 391 390 389 388 387 386 445 444 443 442 441 440 446 447 448 449 450 451 452 453 454 455 456 457 458 459 460 461 462 463 464 465 466 467 468 469 470 471 472 473 474 475 476 477 478 479 480 481 482 483 484 485 486 487 488 489 490 491 492 493 494 495 496 497 498 499 500 501 502 503 504 505 506 507 508 509 510 511 512 513 514 515 516 517 518 519 520 521 522 523 524 525 526 527 528 529 530 531 532 533 534 535 536 537 538 539 540 541 542 543 544 545 546 547 548 549 550 551 552 553 554 555 556 557 558 559 560 561 562 563 564 565 566 567 568 569 570 571 572 573 574 575 576 577 578 579 580 581 582 583 584 585 586 587 588 589 590 591 592 593 594 595 596 597 598 599 600 601 602 603 604 605 606 607 608 609 610 611 612 613 614 615 616 617 618 619 620 621 622 623 624 625 626 627 628 629 630 631 632 633 634 635 636 637 638 639 640 641 642 643 644 645 646 647 648 649 650 651 652 653 654 655 656 657 658 659 660 661 662 663 664 665 666 667 668 669 670 671 672 673 674 675 676 677 678 679 680 681 682 683 684 685 686 687 688 689 690 691 692 693 694 695 696 697 698 699 700 701 702 703 704 705 706 707 708 709 710 711 712 713 714 715 716 717 718 719 720 721 722 723 724 725 726 727 728 729 730 731 732 733 734 735 736 737 738 739 740 741 742 743 744 745 746 747 748 749 750 751 752 753 754 755 756 757 758 759 760 761 762 763 764 765 766 767 768 769 770 771 772 773 774 775 776 777 778 779 780 781 782 783 784 785 786 787 788 789 790 791 792 793 794 795 796 797 798 799 800 801 802 803 804 805 806 807 808 809 810 811 812 813 814 815 816 817 818 819 820 821 822 823 824 825 826 827 828 829 830 831 832 833 834 835 836 837 838 839 840 841 842 843 844 845 846 847 848 849 850 851 852 853 854 855 856 857 858 859 860 861 862 863 864 865 866 867 868 869 870 871 872 873 874 875 876 877 878 879 880 881 882 883 884 885 886 887 888 889 890 891 892 893 894 895 896 897 898 899 900 901 902 903 904 905 906 907 908 909 910 911 912 913 914 915 916 917 918 919 920 921 922 923 924 925 926 927 928 929 930 931 932 933 934 935 936 937 938 939 940 941 942 943 944 945 946 947 948 949 950 951 952 953 954 955 956 957 958 959 960 961 962 963 964 965 966 967 968 969 970 971 972 973 974 975 976 977 978 979 980 981 982 983 984 985 183 135 134 182 181 180 133 132 131 130 179 178 177 176 129 128 127 126 125 124 123 122 121 120 119 118 117 116 115 114 113 112 111 161 160 159 158 193 156 157 110 109 108 107 106 105 104 103 102 101 100 99 98 97 96 95 94 93 83 84 37 38 39 40 41 42 43 44 45 46 47 48 49 50 51 52 53 54 55 56 57 58 59 60 61 62 63 64 65 66 67 68 69 70 71 72 73 74 75 76 77 32 31 30 29 28 27 26 25 24 23 22 21 20 19 18 17 16 15 14 13 12 11 10 9 8 7 6 5 4 3 2 1 2048 2049 2050 2051 2052 2053 2054 2055 2056 2057 2058 2059 2060 2061 2062 2063 2064 2065 2066 2067 2068 2069 2070 2071 2072 2073 2074 2075 2076 2077 2078 2079 2032 2031 2030 2029 2028 2027 2026 2025 2024 2023 2022 2021 2020 2019 2018 2017 2016 2015 2014 2013 2012 2011 2010 2009 2008 2007 2006 2005 2004 2003 2002 2001 1946 1947 1948 1949 1950 1951 1952 1953 1954 1955 1956 1957 1958 1959 1960 1961 1962 1963 1964 1965 1966 1967 1968 1969 1970 1971 1972 1973 1974 1975 1976 1977 1930 1929 1928 1927 1926 1925 1924 1923 1922 1921 1920 1919 1918 1917 1916 1915 1914 1913 1912 1911 1910 1909 1908 1907 1906 1905 1904 1903 1902 1901 1900 1899 1090 1091 1092 1093 1094 1095 1096 1097 1098 1099 1100 1101 1102 1103 1104 1105 1106 1107 1108 1109 1110 1111 1112 1113 1114 1115 1116 1117 1118 1119 1120 1121 1122 1167 1166 1165 1164 1163 1162 1161 1160 1159 1158 1157 1156 1155 1154 1153 1152 1151 1150 1149 1148 1147 1146 1145 1144 1143 1142 1141 1140 1139 1138 1137 1136 1135 1182 1183 1184 1185 1186 1187 1188 1189 1190 1191 1192 1193 1194 1195 1196 1197 1198 1199 1200 1201 1202 1203 1204 1205 1206 1207 1208 1209 1210 1211 1212 1213 1214 1215 1216 1217 1218 1219 1220 1221 1222 1223 1224 1225 1226 1227 1228 1229 1230 1231 1232 1233 1234 1235 1236 1237 1238 1239 1240 1241 1242 1243 1244 1245 1246 1247 1248 1181 1180 1249 1250 1179 1178 1177 1251 1252 1253 1254 1176 1175 1174 1173 1172 1257 1256 1255 1259 1258 1261 1262 1269 1270 1271 1272 1273 1274 1275 1276 1277 1278 1279 1280 1281 1282 1283 1284 1285 1286 1287 1288 1289 1290 1291 1292 1293 1294 1295 1296 1297 1298 1299 1300 1301 1302 1303 1304 1305 1306 1307 1308 1309 1356 1355 1354 1353 1352 1351 1350 1349 1348 1347 1346 1345 1344 1343 1342 1341 1340 1339 1338 1337 1336 1335 1334 1333 1332 1331 1330 1329 1328 1327 1326 1325 1324 1323 1322 1321 1320 1319 1318 1317 1316 1268 1267 1314 1315 1359 1360 1364 1363 1366 1367 1368 1369 1370 1371 1372 1373 1374 1375 1376 1377 1378 1379 1380 1381 1382 1383 1384 1385 1386 1387 1388 1389 1390 1391 1392 1393 1394 1395 1396 1397 1398 1399 1400 1401 1402 1403 1404 1405 1406 1407 1451 1450 1449 1448 1447 1446 1445 1444 1443 1442 1441 1440 1439 1438 1437 1436 1435 1434 1433 1432 1431 1430 1429 1428 1427 1426 1425 1424 1423 1422 1421 1420 1419 1418 1417 1416 1415 1414 1413 1412 1460 1461 1462 1463 1464 1465 1466 1467 1468 1469 1470 1471 1472 1473 1474 1475 1476 1477 1478 1479 1480 1481 1482 1483 1484 1485 1486 1487 1488 1489 1490 1491 1492 1493 1494 1495 1496 1497 1498 1499 1543 1542 1541 1540 1539 1538 1537 1536 1535 1534 1533 1532 1531 1530 1529 1528 1527 1526 1525 1524 1523 1522 1521 1520 1519 1518 1517 1516 1515 1514 1513 1512 1511 1510 1563 1564 1565 1566 1567 1568 1569 1570 1571 1572 1573 1574 1575 1576 1577 1578 1579 1580 1581 1582 1583 1584 1585 1586 1587 1588 1589 1590 1591 1592 1593 1594 1595 1596 1643 1642 1641 1640 1639 1638 1637 1636 1635 1634 1633 1632 1631 1630 1629 1628 1627 1626 1625 1624 1623 1622 1621 1620 1619 1618 1617 1616 1615 1614 1613 1612 1611 1610 1609 1608 1607 1606 1605 1604 1603 1649 1648 1654 1655 1660 1661 1662 1663 1664 1665 1711 1710 1709 1708 1659 1658 1706 1707 1755 1756 1762 1763 1759 1712 1713 1714 1715 1666 1667 1668 1669 1670 1671 1672 1673 1674 1675 1676 1677 1678 1679 1680 1681 1682 1683 1684 1685 1686 1687 1688 1689 1690 1691 1692 1693 1694 1695 1696 1697 1698 1699 1700 1748 1747 1746 1745 1744 1743 1742 1741 1740 1739 1738 1737 1736 1735 1734 1733 1732 1731 1730 1729 1728 1727 1726 1725 1724 1723 1722 1721 1720 1719 1718 1717 1716 1779 1780 1781 1782 1783 1784 1785 1786 1787 1788 1789 1790 1791 1792 1793 1794 1795 1796 1797 1798 1799 1800 1801 1802 1803 1804 1805 1806 1807 1808 1809 1810 1854 1853 1852 1851 1850 1849 265 1848 1847 1846 1845 1844 1843 1842 1841 1840 1839 1838 1837 1836 1835 1834 1873 1833 1832 1872 1871 1831 1830 1855 1829 1870 1869 1828 1827 1826 1868 1867 1825 1824 1823 1866 1865 1822 1778 1777 1821 1864 1820 1776 1775 1819 1856 1863 1818 1774 1773 1817 1862 1816 1772 1771 1815 1861 1860 1813 1814 1770 1769 1768 1812 1859 1858 1857 1056 1811 1059 1767 1764 1760 1757 1754 1749 1750 1753 1761 1765 1766 1057 1055 1054 1052 1053 1058 1062 1061 1060 1758 1752 1751 1703 1702 1704 1705 1701 1656 1657 1652 1651 1646 1653 1650 1647 1644 1600 1597 1645 1599 1598 1552 1551 1547 1546 1500 1550 1553 1545 1544 1549 1548 1555 1554 1601 1602 1556 1557 1558 1559 1560 1561 1562 1509 1508 1507 1506 1505 1504 1503 1502 1501 1457 1458 1459 1455 1456 1453 1454 1411 1410 1409 1365 1408 1452 1066 1065 1064 1063 1067 1068 1069 1070 1362 1361 1358 1357 1313 1310 1312 1311 1265 1264 1266 1263 1260 1124 1123 1079 1078 1076 1077 1876 1875 1874 1878 1885 1884 1883 1980 1985 1986 1988 2034 2035 2081 2082 2087 2088 2092 2091 33 34 79 82 87 88 86 80 78 2090 2093 2094 2085 2084 2089 2086 2083 2080 2036 2033 1989 1987 1984 1979 1933 1932 1886 1882 1879 1877 1073 1072 1880 1881 1887 1931 1934 1978 1981 1982 1983 1937 1936 1935 1888 1889 1890 1071 1075 1074 1082 1081 1080 1125 1126 1169 1170 1171 1168 1127 1128 1129 1130 1131 1132 1133 1134 1089 1088 1087 1086 1085 1084 1083 1894 1893 1892 1891 1938 1939 1940 1941 1942 1943 1895 1896 1897 1898 1945 1944 2000 1999 1998 1997 1996 1995 1994 1993 1992 1991 1990 2037 2038 2039 2040 2041 2042 2043 2044 2045 2046 2047